============================[ Problem Statistics ]=============================|                                                                             ||  Number of variables:          4242                                         ||  Number of clauses:           10081                                         ||  Parse time:                   0.54 s                                       ||                                                                             |============================[ Search Statistics ]==============================| Conflicts |          ORIGINAL         |          LEARNT          | Progress ||           |    Vars  Clauses Literals |    Limit  Clauses Lit/Cl |          |===============================================================================|       100 |    1591     6286   748427 |     2304      100     53 | 62.501 % ||       250 |    1591     6286   748427 |     2535      250     75 | 62.495 % |===============================================================================restarts              : 3conflicts             : 265            (339 /sec)decisions             : 529            (0.00 % random) (676 /sec)propagations          : 11781          (15065 /sec)conflict literals     : 20312          (94.85 % deleted)CPU time              : 0.782 sSATISFIABLE